(set-info :smt-lib-version 2.6)
(set-info :category "crafted")
(set-logic QF_FF)
(define-sort FF0 () (_ FiniteField 52435875175126190479447740508185965837690552500527637822603658699938581184513))
(declare-fun c () Bool)
(declare-fun a () Bool)
(declare-fun d () Bool)
(declare-fun j () Bool)
(declare-fun i () Bool)
(declare-fun h () Bool)
(declare-fun g () Bool)
(declare-fun f () Bool)
(declare-fun e () Bool)
(declare-fun b () Bool)
(declare-fun out () FF0)
(declare-fun _22 () FF0)
(declare-fun _14 () FF0)
(declare-fun _13 () FF0)
(declare-fun _21 () FF0)
(declare-fun _9 () FF0)
(declare-fun _20 () FF0)
(declare-fun _8 () FF0)
(declare-fun _19 () FF0)
(declare-fun _7 () FF0)
(declare-fun _18 () FF0)
(declare-fun _6 () FF0)
(declare-fun _17 () FF0)
(declare-fun _5 () FF0)
(declare-fun _16 () FF0)
(declare-fun _4 () FF0)
(declare-fun _1 () FF0)
(declare-fun _2 () FF0)
(declare-fun _3 () FF0)
(declare-fun _0 () FF0)
(assert 
  (let ((let0 c))
  (let ((let1 a))
  (let ((let2 d))
  (let ((let3 (ite let2 let1 let0)))
  (let ((let4 j))
  (let ((let5 i))
  (let ((let6 h))
  (let ((let7 g))
  (let ((let8 f))
  (let ((let9 e))
  (let ((let10 b))
  (let ((let11 (and let10 let9 let8 let7 let6 let5 let4 let3)))
  (let ((let12 out))
  (let ((let13 (as ff1 FF0)))
  (let ((let14 (= let13 let12)))
  (let ((let15 (= let14 let11)))
  (let ((let16 (as ff0 FF0)))
  (let ((let17 (= let16 let12)))
  (let ((let18 (or let14 let17)))
  (let ((let19 (and let18 let15)))
  (let ((let20 _22))
  (let ((let21 (= let20 let12)))
  (let ((let22 _14))
  (let ((let23 _13))
  (let ((let24 (ff.add let23 let22)))
  (let ((let25 _21))
  (let ((let26 (ff.mul let25 let24)))
  (let ((let27 (= let26 let20)))
  (let ((let28 _9))
  (let ((let29 _20))
  (let ((let30 (ff.mul let29 let28)))
  (let ((let31 (= let30 let25)))
  (let ((let32 _8))
  (let ((let33 _19))
  (let ((let34 (ff.mul let33 let32)))
  (let ((let35 (= let34 let29)))
  (let ((let36 _7))
  (let ((let37 _18))
  (let ((let38 (ff.mul let37 let36)))
  (let ((let39 (= let38 let33)))
  (let ((let40 _6))
  (let ((let41 _17))
  (let ((let42 (ff.mul let41 let40)))
  (let ((let43 (= let42 let37)))
  (let ((let44 _5))
  (let ((let45 _16))
  (let ((let46 (ff.mul let45 let44)))
  (let ((let47 (= let46 let41)))
  (let ((let48 _4))
  (let ((let49 _1))
  (let ((let50 (ff.mul let49 let48)))
  (let ((let51 (= let50 let45)))
  (let ((let52 _2))
  (let ((let53 (as ff52435875175126190479447740508185965837690552500527637822603658699938581184512 FF0)))
  (let ((let54 _3))
  (let ((let55 (ff.mul let54 let53)))
  (let ((let56 (ff.add let55 let13)))
  (let ((let57 (ff.mul let56 let52)))
  (let ((let58 (= let57 let22)))
  (let ((let59 _0))
  (let ((let60 (ff.mul let54 let59)))
  (let ((let61 (= let60 let23)))
  (let ((let62 (ff.mul let28 let28)))
  (let ((let63 (= let62 let28)))
  (let ((let64 (ff.mul let32 let32)))
  (let ((let65 (= let64 let32)))
  (let ((let66 (ff.mul let36 let36)))
  (let ((let67 (= let66 let36)))
  (let ((let68 (ff.mul let40 let40)))
  (let ((let69 (= let68 let40)))
  (let ((let70 (ff.mul let44 let44)))
  (let ((let71 (= let70 let44)))
  (let ((let72 (ff.mul let48 let48)))
  (let ((let73 (= let72 let48)))
  (let ((let74 (ff.mul let54 let54)))
  (let ((let75 (= let74 let54)))
  (let ((let76 (ff.mul let52 let52)))
  (let ((let77 (= let76 let52)))
  (let ((let78 (ff.mul let49 let49)))
  (let ((let79 (= let78 let49)))
  (let ((let80 (ff.mul let59 let59)))
  (let ((let81 (= let80 let59)))
  (let ((let82 (and let81 let79 let77 let75 let73 let71 let69 let67 let65 let63 let61 let58 let51 let47 let43 let39 let35 let31 let27 let21)))
  (let ((let83 (ite let4 let13 let16)))
  (let ((let84 (= let28 let83)))
  (let ((let85 (ite let7 let13 let16)))
  (let ((let86 (= let40 let85)))
  (let ((let87 (ite let10 let13 let16)))
  (let ((let88 (= let49 let87)))
  (let ((let89 (ite let8 let13 let16)))
  (let ((let90 (= let44 let89)))
  (let ((let91 (ite let5 let13 let16)))
  (let ((let92 (= let32 let91)))
  (let ((let93 (ite let1 let13 let16)))
  (let ((let94 (= let59 let93)))
  (let ((let95 (ite let6 let13 let16)))
  (let ((let96 (= let36 let95)))
  (let ((let97 (ite let9 let13 let16)))
  (let ((let98 (= let48 let97)))
  (let ((let99 (ite let2 let13 let16)))
  (let ((let100 (= let54 let99)))
  (let ((let101 (ite let0 let13 let16)))
  (let ((let102 (= let52 let101)))
  (let ((let103 (and let102 let100 let98 let96 let94 let92 let90 let88 let86 let84)))
  (let ((let104 (and let103 let82)))
  (let ((let105 (=> let104 let19)))
  (let ((let106 (not let105)))
  let106
)))))))))))))))))))))))))))))))))))))))))))))))))))))))))))))))))))))))))))))))))))))))))))))))))))))))))))
)
(check-sat)
